<number of tasks>
250

<cycle time>
1000

<order strength>
0.597


<task times>
1 90
2 123
3 344
4 80
5 130
6 112
7 301
8 127
9 77
10 50
11 41
12 93
13 98
14 30
15 85
16 114
17 131
18 130
19 34
20 92
21 209
22 138
23 82
24 68
25 233
26 141
27 88
28 40
29 29
30 39
31 225
32 172
33 91
34 32
35 255
36 197
37 81
38 223
39 37
40 143
41 67
42 34
43 139
44 133
45 82
46 87
47 164
48 38
49 179
50 225
51 208
52 80
53 65
54 84
55 48
56 42
57 120
58 215
59 54
60 147
61 140
62 83
63 36
64 75
65 103
66 154
67 188
68 101
69 173
70 181
71 310
72 30
73 333
74 123
75 259
76 167
77 169
78 276
79 242
80 74
81 148
82 112
83 159
84 80
85 223
86 22
87 223
88 21
89 101
90 265
91 272
92 64
93 113
94 122
95 136
96 114
97 49
98 200
99 49
100 104
101 229
102 80
103 206
104 142
105 115
106 206
107 38
108 152
109 368
110 46
111 196
112 171
113 156
114 112
115 40
116 271
117 35
118 56
119 107
120 90
121 202
122 107
123 271
124 37
125 125
126 74
127 188
128 71
129 219
130 68
131 64
132 151
133 196
134 168
135 31
136 25
137 237
138 111
139 32
140 252
141 43
142 292
143 239
144 59
145 237
146 157
147 47
148 125
149 177
150 263
151 76
152 73
153 104
154 155
155 164
156 70
157 216
158 124
159 190
160 87
161 205
162 172
163 200
164 88
165 114
166 80
167 107
168 230
169 142
170 101
171 147
172 37
173 165
174 167
175 135
176 56
177 187
178 74
179 119
180 80
181 53
182 110
183 57
184 39
185 90
186 319
187 123
188 82
189 45
190 190
191 75
192 155
193 170
194 161
195 217
196 180
197 50
198 32
199 136
200 99
201 75
202 54
203 158
204 184
205 197
206 40
207 83
208 51
209 68
210 97
211 22
212 190
213 35
214 99
215 148
216 148
217 173
218 110
219 66
220 195
221 187
222 210
223 64
224 123
225 121
226 175
227 142
228 205
229 186
230 290
231 194
232 216
233 92
234 54
235 57
236 267
237 138
238 169
239 348
240 173
241 149
242 56
243 180
244 313
245 130
246 94
247 256
248 92
249 156
250 111

<precedence relations>
1,8
2,9
3,12
4,10
4,11
4,12
5,10
6,10
6,11
7,10
7,11
8,14
9,15
10,13
10,16
10,17
10,18
11,14
12,14
12,15
12,17
12,18
13,19
14,20
14,21
14,22
15,56
15,90
16,20
16,21
16,22
16,23
17,20
17,21
17,22
17,23
18,20
18,21
18,23
19,24
20,25
20,26
20,27
20,28
21,26
21,27
21,28
22,26
22,27
22,39
23,26
23,28
24,29
25,30
26,31
26,32
26,33
26,34
26,35
26,36
26,38
27,35
28,35
28,36
28,37
28,38
28,39
29,40
30,41
31,43
32,45
33,46
34,47
35,42
35,44
35,48
35,49
35,56
35,57
36,48
37,48
37,49
37,56
38,48
39,66
39,72
40,51
41,50
42,52
43,55
44,53
45,54
46,56
47,57
48,55
48,58
49,55
50,61
51,59
52,62
53,64
54,60
55,94
55,113
55,135
56,67
56,80
57,63
57,65
57,66
58,66
59,68
60,72
61,71
62,72
62,102
63,69
63,72
63,79
64,72
64,102
65,70
65,145
66,73
66,74
66,101
67,72
67,95
68,75
69,77
70,78
71,76
72,81
72,83
72,88
73,80
73,82
73,83
73,84
74,79
74,80
74,81
74,82
75,85
76,86
77,88
78,87
79,90
80,97
81,89
82,135
82,215
83,168
83,191
83,200
84,113
84,130
84,156
84,215
85,92
86,91
87,94
88,97
89,93
89,94
89,96
90,93
90,95
91,98
92,101
93,99
93,100
93,104
93,105
94,146
95,102
95,103
96,177
96,228
96,248
97,103
97,104
98,108
99,106
100,107
101,109
101,110
101,111
101,112
101,113
102,110
102,111
102,138
103,110
103,112
103,113
104,110
104,114
104,137
104,138
105,155
105,181
105,183
106,119
107,116
108,117
109,118
110,115
110,120
110,122
110,123
111,119
111,148
112,121
112,123
113,200
114,119
115,124
116,126
117,125
118,128
119,139
119,143
120,127
120,128
120,130
121,129
121,131
122,165
123,161
123,200
124,132
125,133
126,135
127,134
128,139
129,137
129,138
129,145
129,161
130,135
130,136
131,135
131,136
131,215
132,142
133,141
134,143
135,140
135,143
135,144
135,146
135,148
136,164
136,182
136,224
137,181
138,155
139,142
139,145
139,147
140,149
141,150
142,151
142,155
142,156
142,169
143,208
144,169
145,181
145,228
146,154
146,165
147,152
147,153
149,158
150,157
151,159
152,221
152,232
152,240
153,160
153,161
153,181
154,161
155,160
155,164
155,200
156,162
156,163
156,165
156,228
157,166
158,167
159,168
160,182
161,169
162,170
162,247
162,248
163,217
163,246
165,170
165,181
165,190
166,173
167,171
168,172
168,174
168,221
169,175
169,176
170,177
171,178
172,179
173,181
174,180
175,182
176,183
176,198
178,184
179,185
180,187
181,189
181,191
182,186
182,188
182,190
184,193
185,195
186,192
187,194
188,197
189,198
189,200
190,196
190,199
190,229
191,196
191,224
192,202
193,203
194,204
195,206
196,201
197,205
198,207
199,208
200,208
200,214
200,233
201,209
202,213
203,210
204,214
205,211
206,215
207,212
208,216
208,217
209,222
210,218
211,219
212,223
213,220
214,224
215,222
216,221
216,239
218,226
219,227
220,228
221,225
221,230
221,231
222,233
223,232
224,229
224,232
225,234
226,237
227,238
228,235
229,236
229,239
229,240
231,241
234,246
235,242
236,243
237,244
238,245
239,247
240,248
240,249
240,250

<end>
